words_hard_train/5875.qaiger
aag 121 24 0 1 97
2
4
8
10
22
24
36
38
50
52
64
66
78
80
94
96
100
104
112
116
124
128
140
142
242
6 2 4
12 9 11
14 8 10
16 13 15
18 6 16
20 19 15
26 23 25
28 22 24
30 27 29
32 21 30
34 33 29
40 37 39
42 36 38
44 41 43
46 35 44
48 47 43
54 51 53
56 50 52
58 55 57
60 49 58
62 61 57
68 65 67
70 64 66
72 69 71
74 63 72
76 75 71
82 79 81
84 78 80
86 83 85
88 76 87
90 77 86
92 89 91
98 94 96
102 99 101
106 104 94
108 102 107
110 109 94
114 111 113
118 116 94
120 114 119
122 121 94
126 123 125
130 128 94
132 126 131
134 93 132
136 92 133
138 135 137
144 141 142
146 140 143
148 145 147
150 148 95
152 149 94
154 151 153
156 91 85
158 155 157
160 154 156
162 159 161
164 62 73
166 165 75
168 123 129
170 167 169
172 166 168
174 171 173
176 34 45
178 177 47
180 111 117
182 179 181
184 178 180
186 183 185
188 3 5
190 189 7
192 191 105
194 190 104
196 193 195
198 7 17
200 199 19
202 107 97
204 201 203
206 200 202
208 205 207
210 197 208
212 186 210
214 20 31
216 215 33
218 217 109
220 216 108
222 219 221
224 212 222
226 48 59
228 227 61
230 228 121
232 229 120
234 231 233
236 224 235
238 174 236
240 162 238
242 139 240
i0 1 x2[0]
i1 1 x1[0]
i2 1 x2[1]
i3 1 x1[1]
i4 1 x2[2]
i5 1 x1[2]
i6 1 x2[3]
i7 1 x1[3]
i8 1 x2[4]
i9 1 x1[4]
i10 1 x2[5]
i11 1 x1[5]
i12 1 x2[6]
i13 1 x1[6]
i14 2 y2[7]
i15 2 y2[1]
i16 2 y2[2]
i17 2 y2[0]
i18 2 y2[4]
i19 2 y2[3]
i20 2 y2[6]
i21 2 y2[5]
i22 1 x2[7]
i23 1 x1[7]
o0 bool[0]
c
simplified
  ==
    or
      2 y2
      abs
        2 y2
    add
      1 x2
      1 x1
