words_hard_train/5875.qaiger.qdimacs
p cnf 121 292
a 32 1 2 33 4 5 70 39 40 71 11 12 18 19 25 26 0
e 3 6 7 8 9 10 13 14 15 16 17 20 21 22 23 24 27 28 29 30 31 34 35 36 37 38 41 42 43 44 45 46 47 48 49 50 51 52 53 54 55 56 57 58 59 60 61 62 63 64 65 66 67 68 69 72 73 74 75 76 77 78 79 80 81 82 83 84 85 86 87 88 89 90 91 92 93 94 95 96 97 98 99 100 101 102 103 104 105 106 107 108 109 110 111 112 113 114 115 116 117 118 119 120 121 0
-1 -2 3 0
1 -3 0
2 -3 0
4 5 6 0
-4 -6 0
-5 -6 0
-4 -5 7 0
4 -7 0
5 -7 0
6 7 8 0
-6 -8 0
-7 -8 0
-3 -8 9 0
3 -9 0
8 -9 0
9 7 10 0
-9 -10 0
-7 -10 0
11 12 13 0
-11 -13 0
-12 -13 0
-11 -12 14 0
11 -14 0
12 -14 0
13 14 15 0
-13 -15 0
-14 -15 0
10 -15 16 0
-10 -16 0
15 -16 0
16 14 17 0
-16 -17 0
-14 -17 0
18 19 20 0
-18 -20 0
-19 -20 0
-18 -19 21 0
18 -21 0
19 -21 0
20 21 22 0
-20 -22 0
-21 -22 0
17 -22 23 0
-17 -23 0
22 -23 0
23 21 24 0
-23 -24 0
-21 -24 0
25 26 27 0
-25 -27 0
-26 -27 0
-25 -26 28 0
25 -28 0
26 -28 0
27 28 29 0
-27 -29 0
-28 -29 0
24 -29 30 0
-24 -30 0
29 -30 0
30 28 31 0
-30 -31 0
-28 -31 0
32 33 34 0
-32 -34 0
-33 -34 0
-32 -33 35 0
32 -35 0
33 -35 0
34 35 36 0
-34 -36 0
-35 -36 0
31 -36 37 0
-31 -37 0
36 -37 0
37 35 38 0
-37 -38 0
-35 -38 0
39 40 41 0
-39 -41 0
-40 -41 0
-39 -40 42 0
39 -42 0
40 -42 0
41 42 43 0
-41 -43 0
-42 -43 0
-38 43 44 0
38 -44 0
-43 -44 0
38 -43 45 0
-38 -45 0
43 -45 0
44 45 46 0
-44 -46 0
-45 -46 0
-47 -48 49 0
47 -49 0
48 -49 0
49 50 51 0
-49 -51 0
-50 -51 0
-52 -47 53 0
52 -53 0
47 -53 0
-51 53 54 0
51 -54 0
-53 -54 0
54 -47 55 0
-54 -55 0
47 -55 0
55 56 57 0
-55 -57 0
-56 -57 0
-58 -47 59 0
58 -59 0
47 -59 0
-57 59 60 0
57 -60 0
-59 -60 0
60 -47 61 0
-60 -61 0
47 -61 0
61 62 63 0
-61 -63 0
-62 -63 0
-64 -47 65 0
64 -65 0
47 -65 0
-63 65 66 0
63 -66 0
-65 -66 0
46 -66 67 0
-46 -67 0
66 -67 0
-46 66 68 0
46 -68 0
-66 -68 0
67 68 69 0
-67 -69 0
-68 -69 0
70 -71 72 0
-70 -72 0
71 -72 0
-70 71 73 0
70 -73 0
-71 -73 0
72 73 74 0
-72 -74 0
-73 -74 0
-74 47 75 0
74 -75 0
-47 -75 0
74 -47 76 0
-74 -76 0
47 -76 0
75 76 77 0
-75 -77 0
-76 -77 0
45 42 78 0
-45 -78 0
-42 -78 0
77 78 79 0
-77 -79 0
-78 -79 0
-77 -78 80 0
77 -80 0
78 -80 0
79 80 81 0
-79 -81 0
-80 -81 0
-31 36 82 0
31 -82 0
-36 -82 0
82 37 83 0
-82 -83 0
-37 -83 0
61 64 84 0
-61 -84 0
-64 -84 0
83 84 85 0
-83 -85 0
-84 -85 0
-83 -84 86 0
83 -86 0
84 -86 0
85 86 87 0
-85 -87 0
-86 -87 0
-17 22 88 0
17 -88 0
-22 -88 0
88 23 89 0
-88 -89 0
-23 -89 0
55 58 90 0
-55 -90 0
-58 -90 0
89 90 91 0
-89 -91 0
-90 -91 0
-89 -90 92 0
89 -92 0
90 -92 0
91 92 93 0
-91 -93 0
-92 -93 0
1 2 94 0
-1 -94 0
-2 -94 0
94 3 95 0
-94 -95 0
-3 -95 0
95 52 96 0
-95 -96 0
-52 -96 0
-95 -52 97 0
95 -97 0
52 -97 0
96 97 98 0
-96 -98 0
-97 -98 0
3 8 99 0
-3 -99 0
-8 -99 0
99 9 100 0
-99 -100 0
-9 -100 0
53 48 101 0
-53 -101 0
-48 -101 0
100 101 102 0
-100 -102 0
-101 -102 0
-100 -101 103 0
100 -103 0
101 -103 0
102 103 104 0
-102 -104 0
-103 -104 0
98 -104 105 0
-98 -105 0
104 -105 0
-93 -105 106 0
93 -106 0
105 -106 0
-10 15 107 0
10 -107 0
-15 -107 0
107 16 108 0
-107 -108 0
-16 -108 0
108 54 109 0
-108 -109 0
-54 -109 0
-108 -54 110 0
108 -110 0
54 -110 0
109 110 111 0
-109 -111 0
-110 -111 0
-106 -111 112 0
106 -112 0
111 -112 0
-24 29 113 0
24 -113 0
-29 -113 0
113 30 114 0
-113 -114 0
-30 -114 0
-114 60 115 0
114 -115 0
-60 -115 0
114 -60 116 0
-114 -116 0
60 -116 0
115 116 117 0
-115 -117 0
-116 -117 0
-112 117 118 0
112 -118 0
-117 -118 0
-87 -118 119 0
87 -119 0
118 -119 0
-81 -119 120 0
81 -120 0
119 -120 0
69 -120 121 0
-69 -121 0
120 -121 0
121 0
